40
     1     3    22    81    86    90    22    42    28    57    66    82    96    55    73    20    86    92    43    76    22    28    52    75    58    76    53    43    75     2    79    11    81    25    42    11    14    17    29    81
     5     3     5     3     9     8     5     3    10     2     4     1     5     1     4     1     9     9     1     2     5     3     1     1     4    10     9     6     6     8     8     7    10     4     8     6     2     1     2     2
     0   103     0    44     0     0    38   166     0     0    57     1     0     0   159     0    71     0     0    87   193     0     0     0     0     0   146   148     0   159   165    36    11    19    83     0     0     0    54     0
